SPARKNaCl/why3-z3/sparknacl-utils.adb_132_24_index_check3_1.smt2
;; produced by z3_gnatprove.drv ;;
(set-info :smt-lib-version 2.5)
(set-info :source |VC generated by SPARK 2014|)
(set-info :category industrial)
(set-info :status unknown)
;;; generated by SMT-LIB2 driver
;;; SMT-LIB2 driver: bit-vectors, common part
;;; SMT-LIB2: integer arithmetic
(declare-datatypes ()
  ((int__ref (int__refqtmk (int__content Int)))))

(declare-datatypes ()
  ((t__ref (t__refqtmk (t__content (_ BitVec 16))))))

(declare-sort gf16_normal_limb 0)

;; "to_rep"
(declare-fun to_rep (gf16_normal_limb) (_ BitVec 16))

;; "of_rep"
(declare-fun of_rep ((_ BitVec 16)) gf16_normal_limb)

;; "inversion_axiom"
(assert
  (forall ((x gf16_normal_limb))
    (! (= (of_rep (to_rep x)) x) :pattern ((to_rep x)) )))

;; "range_axiom"
(assert true)

;; "coerce_axiom"
(assert
  (forall ((x (_ BitVec 16)))
    (! (= (to_rep (of_rep x)) x) :pattern ((to_rep (of_rep x))) )))

(declare-sort map1 0)

(declare-datatypes ()
  ((map__ref (map__refqtmk (map__content map1)))))

;; "has_bounds"
(declare-fun has_bounds (map1
  Int
  Int) Bool)

;; "get"
(declare-fun get (map1
  Int) gf16_normal_limb)

;; "set"
(declare-fun set (map1
  Int
  gf16_normal_limb) map1)

;; "set_eq"
(assert
  (forall ((a map1) (i Int) (v gf16_normal_limb))
    (! (= (get (set a i v) i) v) :pattern ((set a i v)) )))

;; "set_neq"
(assert
  (forall ((a map1) (i Int) (v gf16_normal_limb))
    (! (forall ((j Int))
         (! (=> (not (= i j)) (= (get (set a i v) j) (get a j))) :pattern (
         (get
           a
           j)) :pattern ((get (set a i v) j)) )) :pattern ((set a i v)) )))

;; "set_has_bounds"
(assert
  (forall ((a map1) (i Int) (f Int) (l Int) (v gf16_normal_limb))
    (! (=>
         (and (<= f i) (<= i l))
         (=> (has_bounds a f l) (has_bounds (set a i v) f l))) :pattern (
    (has_bounds
      (set a i v)
      f
      l)) )))

(declare-const swap Bool)

(declare-const p map1)

(declare-const q map1)

(declare-const t (_ BitVec 16))

;; "t'unused"
(define-fun tqtunused () t__ref
  (t__refqtmk t))

;; "q'unused"
(define-fun qqtunused () map__ref
  (map__refqtmk q))

;; "p'unused"
(define-fun pqtunused () map__ref
  (map__refqtmk p))

;; "Assume"
(assert (has_bounds p 0 15))

;; "Assume"
(assert (has_bounds q 0 15))

;; "temp___729"
(define-fun temp___729 () Bool
  swap)

;; "temp___old_763'unused"
(define-fun temp___old_763qtunused () map1
  q)

;; "map__content'result'unused"
(define-fun map__contentqtresultqtunused () map1
  q)

;; "temp___old_762'unused"
(define-fun temp___old_762qtunused () map1
  p)

;; "map__content'result'unused"
(define-fun map__contentqtresultqtunused1 () map1
  p)

;; "temp___old_761'unused"
(define-fun temp___old_761qtunused () map1
  p)

;; "map__content'result'unused"
(define-fun map__contentqtresultqtunused2 () map1
  p)

;; "temp___old_760'unused"
(define-fun temp___old_760qtunused () map1
  q)

;; "map__content'result'unused"
(define-fun map__contentqtresultqtunused3 () map1
  q)

;; "Assume"
(assert true)

;; "Assume"
(assert true)

;; "o"
(define-fun o () Int
  (ite swap 1 0))

;; "to_int'result'unused"
(define-fun to_intqtresultqtunused () Int
  o)

;; "o"
(define-fun o1 () (_ BitVec 16)
  ((_ int2bv 16) o))

;; "of_int'result'unused"
(define-fun of_intqtresultqtunused () (_ BitVec 16)
  o1)

;; "o"
(define-fun o2 () (_ BitVec 16)
  (bvmul #xFFFF o1))

;; "mul'result'unused"
(define-fun mulqtresultqtunused () (_ BitVec 16)
  o2)

;; "Ensures"
(assert true)

;; "range_check_'result'unused"
(define-fun range_check_qtresultqtunused () (_ BitVec 16)
  o2)

(declare-const c (_ BitVec 16))

;; "c'unused"
(define-fun cqtunused () t__ref
  (t__refqtmk c))

;; "H"
(assert (= c o2))

;; "Assume"
(assert true)

(declare-const i Int)

;; "i'unused"
(define-fun iqtunused () int__ref
  (int__refqtmk i))

;; "H"
(assert (= i 0))

;; "int__content'result'unused"
(define-fun int__contentqtresultqtunused () Int
  i)

;; "o"
(define-fun o3 () Bool
  (ite (<= i 15) true false))

;; "infix <='result'unused"
(define-fun infix_lseqqtresultqtunused () Bool
  o3)

;; "int__content'result'unused"
(define-fun int__contentqtresultqtunused1 () Int
  i)

;; "o"
(define-fun o4 () Bool
  (ite (<= 0 i) true false))

;; "infix <='result'unused"
(define-fun infix_lseqqtresultqtunused1 () Bool
  o4)

;; "o"
(define-fun o5 () Bool
  (and o4 o3))

;; "andb'result'unused"
(define-fun andbqtresultqtunused () Bool
  o5)

;; "H"
(assert (= o5 true))

;; "temp___loop_entry_748'unused"
(define-fun temp___loop_entry_748qtunused () map1
  p)

;; "map__content'result'unused"
(define-fun map__contentqtresultqtunused4 () map1
  p)

;; "temp___loop_entry_745'unused"
(define-fun temp___loop_entry_745qtunused () map1
  q)

;; "map__content'result'unused"
(define-fun map__contentqtresultqtunused5 () map1
  q)

;; "temp___loop_entry_754'unused"
(define-fun temp___loop_entry_754qtunused () map1
  q)

;; "map__content'result'unused"
(define-fun map__contentqtresultqtunused6 () map1
  q)

;; "temp___loop_entry_751'unused"
(define-fun temp___loop_entry_751qtunused () map1
  p)

;; "map__content'result'unused"
(define-fun map__contentqtresultqtunused7 () map1
  p)

;; "temp___loop_entry_741'unused"
(define-fun temp___loop_entry_741qtunused () map1
  q)

;; "map__content'result'unused"
(define-fun map__contentqtresultqtunused8 () map1
  q)

;; "temp___loop_entry_738'unused"
(define-fun temp___loop_entry_738qtunused () map1
  p)

;; "map__content'result'unused"
(define-fun map__contentqtresultqtunused9 () map1
  p)

;; "temp___loop_entry_736'unused"
(define-fun temp___loop_entry_736qtunused () (_ BitVec 16)
  t)

;; "t__content'result'unused"
(define-fun t__contentqtresultqtunused () (_ BitVec 16)
  t)

;; "int__content'result'unused"
(define-fun int__contentqtresultqtunused2 () Int
  i)

;; "map__content'result'unused"
(define-fun map__contentqtresultqtunused10 () map1
  q)

;; "o"
(define-fun o6 () gf16_normal_limb
  (get q i))

;; "get'result'unused"
(define-fun getqtresultqtunused () gf16_normal_limb
  o6)

(declare-const o7 (_ BitVec 16))

;; "Ensures"
(assert (= (to_rep o6) o7))

;; "to_rep'result'unused"
(define-fun to_repqtresultqtunused () (_ BitVec 16)
  o7)

;; "int__content'result'unused"
(define-fun int__contentqtresultqtunused3 () Int
  i)

;; "map__content'result'unused"
(define-fun map__contentqtresultqtunused11 () map1
  p)

;; "o"
(define-fun o8 () gf16_normal_limb
  (get p i))

;; "get'result'unused"
(define-fun getqtresultqtunused1 () gf16_normal_limb
  o8)

(declare-const o9 (_ BitVec 16))

;; "Ensures"
(assert (= (to_rep o8) o9))

;; "to_rep'result'unused"
(define-fun to_repqtresultqtunused1 () (_ BitVec 16)
  o9)

;; "o"
(define-fun o10 () (_ BitVec 16)
  (bvxor o9 o7))

;; "bw_xor'result'unused"
(define-fun bw_xorqtresultqtunused () (_ BitVec 16)
  o10)

;; "t__content'result'unused"
(define-fun t__contentqtresultqtunused1 () (_ BitVec 16)
  c)

;; "o"
(define-fun o11 () (_ BitVec 16)
  (bvand c o10))

;; "bw_and'result'unused"
(define-fun bw_andqtresultqtunused () (_ BitVec 16)
  o11)

(declare-const t1 (_ BitVec 16))

;; "t'unused"
(define-fun tqtunused1 () t__ref
  (t__refqtmk t1))

;; "H"
(assert (= t1 o11))

;; "Assert"
(assert
  (ite (= swap true)
    (and
      (and
        (= t1 (bvxor (to_rep (get p i)) (to_rep (get q i))))
        (= (bvxor (to_rep (get p i)) t1) (to_rep (get q i))))
      (= (bvxor (to_rep (get q i)) t1) (to_rep (get p i))))
    (and
      (and
        (= t1 #x0000)
        (= (bvxor (to_rep (get p i)) t1) (to_rep (get p i))))
      (= (bvxor (to_rep (get q i)) t1) (to_rep (get q i))))))

;; "t__content'result'unused"
(define-fun t__contentqtresultqtunused2 () (_ BitVec 16)
  t1)

;; "int__content'result'unused"
(define-fun int__contentqtresultqtunused4 () Int
  i)

;; "map__content'result'unused"
(define-fun map__contentqtresultqtunused12 () map1
  p)

;; "o"
(define-fun o12 () gf16_normal_limb
  (get p i))

;; "get'result'unused"
(define-fun getqtresultqtunused2 () gf16_normal_limb
  o12)

(declare-const o13 (_ BitVec 16))

;; "Ensures"
(assert (= (to_rep o12) o13))

;; "to_rep'result'unused"
(define-fun to_repqtresultqtunused2 () (_ BitVec 16)
  o13)

;; "o"
(define-fun o14 () (_ BitVec 16)
  (bvxor o13 t1))

;; "bw_xor'result'unused"
(define-fun bw_xorqtresultqtunused1 () (_ BitVec 16)
  o14)

(declare-const o15 gf16_normal_limb)

;; "Ensures"
(assert (= (to_rep o15) o14))

;; "of_rep'result'unused"
(define-fun of_repqtresultqtunused () gf16_normal_limb
  o15)

;; "int__content'result'unused"
(define-fun int__contentqtresultqtunused5 () Int
  i)

;; "map__content'result'unused"
(define-fun map__contentqtresultqtunused13 () map1
  p)

;; "o"
(define-fun o16 () map1
  (set p i o15))

;; "set'result'unused"
(define-fun setqtresultqtunused () map1
  o16)

(declare-const p1 map1)

;; "p'unused"
(define-fun pqtunused1 () map__ref
  (map__refqtmk p1))

;; "H"
(assert (= p1 o16))

;; "t__content'result'unused"
(define-fun t__contentqtresultqtunused3 () (_ BitVec 16)
  t1)

;; "int__content'result'unused"
(define-fun int__contentqtresultqtunused6 () Int
  i)

;; "map__content'result'unused"
(define-fun map__contentqtresultqtunused14 () map1
  q)

;; "o"
(define-fun o17 () gf16_normal_limb
  (get q i))

;; "get'result'unused"
(define-fun getqtresultqtunused3 () gf16_normal_limb
  o17)

(declare-const o18 (_ BitVec 16))

;; "Ensures"
(assert (= (to_rep o17) o18))

;; "to_rep'result'unused"
(define-fun to_repqtresultqtunused3 () (_ BitVec 16)
  o18)

;; "o"
(define-fun o19 () (_ BitVec 16)
  (bvxor o18 t1))

;; "bw_xor'result'unused"
(define-fun bw_xorqtresultqtunused2 () (_ BitVec 16)
  o19)

(declare-const o20 gf16_normal_limb)

;; "Ensures"
(assert (= (to_rep o20) o19))

;; "of_rep'result'unused"
(define-fun of_repqtresultqtunused1 () gf16_normal_limb
  o20)

;; "int__content'result'unused"
(define-fun int__contentqtresultqtunused7 () Int
  i)

;; "map__content'result'unused"
(define-fun map__contentqtresultqtunused15 () map1
  q)

;; "o"
(define-fun o21 () map1
  (set q i o20))

;; "set'result'unused"
(define-fun setqtresultqtunused1 () map1
  o21)

(declare-const q1 map1)

;; "q'unused"
(define-fun qqtunused1 () map__ref
  (map__refqtmk q1))

;; "H"
(assert (= q1 o21))

(declare-const usfqtunused Bool)

(declare-const anyqtresultqtunused Bool)

(declare-const usf Int)

(declare-const anyqtresultqtunused1 Int)

(declare-const jqtunused Int)

(declare-const int__contentqtresultqtunused8 Int)

(declare-const o22 Bool)

(declare-const infix_lseqqtresultqtunused2 Bool)

(declare-const o23 Bool)

(declare-const infix_lseqqtresultqtunused3 Bool)

(declare-const andbqtresultqtunused1 Bool)

(declare-const usfqtunused1 Bool)

(declare-const anyqtresultqtunused2 Bool)

(declare-const usf1 Int)

(declare-const anyqtresultqtunused3 Int)

(declare-const jqtunused1 Int)

(declare-const int__contentqtresultqtunused9 Int)

(declare-const o24 Bool)

(declare-const infix_lseqqtresultqtunused4 Bool)

(declare-const o25 Bool)

(declare-const infix_lseqqtresultqtunused5 Bool)

(declare-const andbqtresultqtunused2 Bool)

;; "H"
(assert
  (ite (= swap true)
    (and
      (and
        (= anyqtresultqtunused3 usf1)
        (and
          (= jqtunused1 usf1)
          (and
            (= int__contentqtresultqtunused9 i)
            (and
              (= o24 (ite (<= usf1 i) true false))
              (and
                (= infix_lseqqtresultqtunused4 o24)
                (and
                  (= o25 (ite (<= 0 usf1) true false))
                  (and
                    (= infix_lseqqtresultqtunused5 o25)
                    (= andbqtresultqtunused2 (and o25 o24)))))))))
      (and
        (= usfqtunused1 (ite (forall ((j Int))
                               (=>
                                 (and (<= 0 j) (<= j i))
                                 (and
                                   (= (to_rep (get p1 j)) (to_rep (get q j)))
                                   (= (to_rep (get q1 j)) (to_rep (get p j))))))
                          true
                          false))
        (= anyqtresultqtunused2 (ite (forall ((j Int))
                                       (=>
                                         (and (<= 0 j) (<= j i))
                                         (and
                                           (= (to_rep (get p1 j)) (to_rep
                                                                    (get q j)))
                                           (= (to_rep (get q1 j)) (to_rep
                                                                    (get p j))))))
                                  true
                                  false))))
    (and
      (and
        (= anyqtresultqtunused1 usf)
        (and
          (= jqtunused usf)
          (and
            (= int__contentqtresultqtunused8 i)
            (and
              (= o22 (ite (<= usf i) true false))
              (and
                (= infix_lseqqtresultqtunused2 o22)
                (and
                  (= o23 (ite (<= 0 usf) true false))
                  (and
                    (= infix_lseqqtresultqtunused3 o23)
                    (= andbqtresultqtunused1 (and o23 o22)))))))))
      (and
        (= usfqtunused (ite (forall ((j Int))
                              (=>
                                (and (<= 0 j) (<= j i))
                                (and
                                  (= (to_rep (get p1 j)) (to_rep (get p j)))
                                  (= (to_rep (get q1 j)) (to_rep (get q j))))))
                         true
                         false))
        (= anyqtresultqtunused (ite (forall ((j Int))
                                      (=>
                                        (and (<= 0 j) (<= j i))
                                        (and
                                          (= (to_rep (get p1 j)) (to_rep
                                                                   (get p j)))
                                          (= (to_rep (get q1 j)) (to_rep
                                                                   (get q j))))))
                                 true
                                 false))))))

(declare-const p2 map1)

(declare-const q2 map1)

(declare-const t2 (_ BitVec 16))

(declare-const i1 Int)

;; "i'unused"
(define-fun iqtunused1 () int__ref
  (int__refqtmk i1))

;; "q'unused"
(define-fun qqtunused2 () map__ref
  (map__refqtmk q2))

;; "p'unused"
(define-fun pqtunused2 () map__ref
  (map__refqtmk p2))

;; "LoopInvariant"
(assert
  (ite (= swap true)
    (forall ((j Int))
      (=>
        (and (<= 0 j) (<= j i1))
        (and
          (= (to_rep (get p2 j)) (to_rep (get q j)))
          (= (to_rep (get q2 j)) (to_rep (get p j))))))
    (forall ((j Int))
      (=>
        (and (<= 0 j) (<= j i1))
        (and
          (= (to_rep (get p2 j)) (to_rep (get p j)))
          (= (to_rep (get q2 j)) (to_rep (get q j))))))))

;; "Assume"
(assert
  (= (and (ite (and
                 (and
                   (and
                     (has_bounds p2 0 15)
                     (forall ((temp___739 Int))
                       (=>
                         (and (<= 0 temp___739) (<= temp___739 15))
                         (=>
                           (or
                             (< 15 temp___739)
                             (or (< temp___739 0) (< i1 temp___739)))
                           (= (get p2 temp___739) (get p temp___739))))))
                   (has_bounds q2 0 15))
                 (forall ((temp___742 Int))
                   (=>
                     (and (<= 0 temp___742) (<= temp___742 15))
                     (=>
                       (or
                         (< 15 temp___742)
                         (or (< temp___742 0) (< i1 temp___742)))
                       (= (get q2 temp___742) (get q temp___742))))))
            true
            false) (ite (and (<= 0 i1) (<= i1 15)) true false)) true))

;; "int__content'result'unused"
(define-fun int__contentqtresultqtunused10 () Int
  i1)

;; "infix ='result'unused"
(define-fun infix_eqqtresultqtunused () Bool
  (ite (= i1 15) true false))

;; "H"
(assert (not (= i1 15)))

;; "int__content'result'unused"
(define-fun int__contentqtresultqtunused11 () Int
  i1)

;; "o"
(define-fun o26 () Int
  (+ i1 1))

;; "infix +'result'unused"
(define-fun infix_plqtresultqtunused () Int
  o26)

(declare-const i2 Int)

;; "i'unused"
(define-fun iqtunused2 () int__ref
  (int__refqtmk i2))

;; "H"
(assert (= i2 o26))

;; "int__content'result'unused"
(define-fun int__contentqtresultqtunused12 () Int
  i2)

;; "map__content'result'unused"
(define-fun map__contentqtresultqtunused16 () map1
  q2)

;; "o"
(define-fun o27 () gf16_normal_limb
  (get q2 i2))

;; "get'result'unused"
(define-fun getqtresultqtunused4 () gf16_normal_limb
  o27)

(declare-const o28 (_ BitVec 16))

;; "Ensures"
(assert (= (to_rep o27) o28))

;; "to_rep'result'unused"
(define-fun to_repqtresultqtunused4 () (_ BitVec 16)
  o28)

;; "int__content'result'unused"
(define-fun int__contentqtresultqtunused13 () Int
  i2)

;; "map__content'result'unused"
(define-fun map__contentqtresultqtunused17 () map1
  p2)

;; "o"
(define-fun o29 () gf16_normal_limb
  (get p2 i2))

;; "get'result'unused"
(define-fun getqtresultqtunused5 () gf16_normal_limb
  o29)

(declare-const o30 (_ BitVec 16))

;; "Ensures"
(assert (= (to_rep o29) o30))

;; "to_rep'result'unused"
(define-fun to_repqtresultqtunused5 () (_ BitVec 16)
  o30)

;; "o"
(define-fun o31 () (_ BitVec 16)
  (bvxor o30 o28))

;; "bw_xor'result'unused"
(define-fun bw_xorqtresultqtunused3 () (_ BitVec 16)
  o31)

;; "t__content'result'unused"
(define-fun t__contentqtresultqtunused4 () (_ BitVec 16)
  c)

;; "o"
(define-fun o32 () (_ BitVec 16)
  (bvand c o31))

;; "bw_and'result'unused"
(define-fun bw_andqtresultqtunused1 () (_ BitVec 16)
  o32)

(declare-const t3 (_ BitVec 16))

;; "t'unused"
(define-fun tqtunused2 () t__ref
  (t__refqtmk t3))

;; "H"
(assert (= t3 o32))

;; "Assert"
(assert
  (ite (= swap true)
    (and
      (and
        (= t3 (bvxor (to_rep (get p2 i2)) (to_rep (get q2 i2))))
        (= (bvxor (to_rep (get p2 i2)) t3) (to_rep (get q2 i2))))
      (= (bvxor (to_rep (get q2 i2)) t3) (to_rep (get p2 i2))))
    (and
      (and
        (= t3 #x0000)
        (= (bvxor (to_rep (get p2 i2)) t3) (to_rep (get p2 i2))))
      (= (bvxor (to_rep (get q2 i2)) t3) (to_rep (get q2 i2))))))

;; "t__content'result'unused"
(define-fun t__contentqtresultqtunused5 () (_ BitVec 16)
  t3)

;; "int__content'result'unused"
(define-fun int__contentqtresultqtunused14 () Int
  i2)

;; "map__content'result'unused"
(define-fun map__contentqtresultqtunused18 () map1
  p2)

;; "o"
(define-fun o33 () gf16_normal_limb
  (get p2 i2))

;; "get'result'unused"
(define-fun getqtresultqtunused6 () gf16_normal_limb
  o33)

(declare-const o34 (_ BitVec 16))

;; "Ensures"
(assert (= (to_rep o33) o34))

;; "to_rep'result'unused"
(define-fun to_repqtresultqtunused6 () (_ BitVec 16)
  o34)

;; "o"
(define-fun o35 () (_ BitVec 16)
  (bvxor o34 t3))

;; "bw_xor'result'unused"
(define-fun bw_xorqtresultqtunused4 () (_ BitVec 16)
  o35)

(declare-const o36 gf16_normal_limb)

;; "Ensures"
(assert (= (to_rep o36) o35))

;; "of_rep'result'unused"
(define-fun of_repqtresultqtunused2 () gf16_normal_limb
  o36)

;; "int__content'result'unused"
(define-fun int__contentqtresultqtunused15 () Int
  i2)

;; "map__content'result'unused"
(define-fun map__contentqtresultqtunused19 () map1
  p2)

;; "o"
(define-fun o37 () map1
  (set p2 i2 o36))

;; "set'result'unused"
(define-fun setqtresultqtunused2 () map1
  o37)

(declare-const p3 map1)

;; "p'unused"
(define-fun pqtunused3 () map__ref
  (map__refqtmk p3))

;; "H"
(assert (= p3 o37))

;; "t__content'result'unused"
(define-fun t__contentqtresultqtunused6 () (_ BitVec 16)
  t3)

;; "int__content'result'unused"
(define-fun int__contentqtresultqtunused16 () Int
  i2)

;; "map__content'result'unused"
(define-fun map__contentqtresultqtunused20 () map1
  q2)

;; "o"
(define-fun o38 () gf16_normal_limb
  (get q2 i2))

;; "get'result'unused"
(define-fun getqtresultqtunused7 () gf16_normal_limb
  o38)

(declare-const o39 (_ BitVec 16))

;; "Ensures"
(assert (= (to_rep o38) o39))

;; "to_rep'result'unused"
(define-fun to_repqtresultqtunused7 () (_ BitVec 16)
  o39)

;; "o"
(define-fun o40 () (_ BitVec 16)
  (bvxor o39 t3))

;; "bw_xor'result'unused"
(define-fun bw_xorqtresultqtunused5 () (_ BitVec 16)
  o40)

(declare-const o41 gf16_normal_limb)

;; "Ensures"
(assert (= (to_rep o41) o40))

;; "of_rep'result'unused"
(define-fun of_repqtresultqtunused3 () gf16_normal_limb
  o41)

;; "int__content'result'unused"
(define-fun int__contentqtresultqtunused17 () Int
  i2)

;; "map__content'result'unused"
(define-fun map__contentqtresultqtunused21 () map1
  q2)

;; "o"
(define-fun o42 () map1
  (set q2 i2 o41))

;; "set'result'unused"
(define-fun setqtresultqtunused3 () map1
  o42)

(declare-const q3 map1)

;; "q'unused"
(define-fun qqtunused3 () map__ref
  (map__refqtmk q3))

;; "H"
(assert (= q3 o42))

;; "H"
(assert (= swap true))

(declare-const usf2 Int)

;; "any'result'unused"
(define-fun anyqtresultqtunused4 () Int
  usf2)

;; "j'unused"
(define-fun jqtunused2 () Int
  usf2)

;; "int__content'result'unused"
(define-fun int__contentqtresultqtunused18 () Int
  i2)

;; "o"
(define-fun o43 () Bool
  (ite (<= usf2 i2) true false))

;; "infix <='result'unused"
(define-fun infix_lseqqtresultqtunused6 () Bool
  o43)

;; "o"
(define-fun o44 () Bool
  (ite (<= 0 usf2) true false))

;; "infix <='result'unused"
(define-fun infix_lseqqtresultqtunused7 () Bool
  o44)

;; "o"
(define-fun o45 () Bool
  (and o44 o43))

;; "andb'result'unused"
(define-fun andbqtresultqtunused3 () Bool
  o45)

;; "H"
(assert (= o45 true))

;; "Assert"
(assert (and (<= 0 usf2) (<= usf2 15)))

;; "o"
(define-fun o46 () gf16_normal_limb
  (get p usf2))

;; "get'result'unused"
(define-fun getqtresultqtunused8 () gf16_normal_limb
  o46)

(declare-const o47 (_ BitVec 16))

;; "Ensures"
(assert (= (to_rep o46) o47))

;; "to_rep'result'unused"
(define-fun to_repqtresultqtunused8 () (_ BitVec 16)
  o47)

;; "Assert"
(assert (and (<= 0 usf2) (<= usf2 15)))

;; "map__content'result'unused"
(define-fun map__contentqtresultqtunused22 () map1
  q3)

;; "o"
(define-fun o48 () gf16_normal_limb
  (get q3 usf2))

;; "get'result'unused"
(define-fun getqtresultqtunused9 () gf16_normal_limb
  o48)

(declare-const o49 (_ BitVec 16))

;; "Ensures"
(assert (= (to_rep o48) o49))

;; "to_rep'result'unused"
(define-fun to_repqtresultqtunused9 () (_ BitVec 16)
  o49)

;; "o"
(define-fun o50 () Bool
  (ite (= o49 o47) true false))

;; "eq'result'unused"
(define-fun eqqtresultqtunused () Bool
  o50)

;; "Assert"
(assert (and (<= 0 usf2) (<= usf2 15)))

;; "o"
(define-fun o51 () gf16_normal_limb
  (get q usf2))

;; "get'result'unused"
(define-fun getqtresultqtunused10 () gf16_normal_limb
  o51)

(declare-const o52 (_ BitVec 16))

;; "Ensures"
(assert (= (to_rep o51) o52))

;; "to_rep'result'unused"
(define-fun to_repqtresultqtunused10 () (_ BitVec 16)
  o52)

;; Goal "def'vc"
;; File "sparknacl-utils.ads", line 44, characters 0-0
(assert
  (not (<= 0 usf2)))

(check-sat)
